
******************************************************************************
This program contains Ipopt, a library for large-scale nonlinear optimization.
 Ipopt is released as open source code under the Eclipse Public License (EPL).
         For more information visit http://projects.coin-or.org/Ipopt
******************************************************************************

This is Ipopt version 3.12.6, running with linear solver ma57.

Number of nonzeros in equality constraint Jacobian...:        0
Number of nonzeros in inequality constraint Jacobian.:        0
Number of nonzeros in Lagrangian Hessian.............:     9999

Total number of variables............................:     5000
                     variables with only lower bounds:        0
                variables with lower and upper bounds:     5000
                     variables with only upper bounds:        0
Total number of equality constraints.................:        0
Total number of inequality constraints...............:        0
        inequality constraints with only lower bounds:        0
   inequality constraints with lower and upper bounds:        0
        inequality constraints with only upper bounds:        0

iter    objective    inf_pr   inf_du lg(mu)  ||d||  lg(rg) alpha_du alpha_pr  ls
   0  4.9990000e+03 0.00e+00 3.50e+00  -1.0 0.00e+00    -  0.00e+00 0.00e+00   0
   1 -3.8072557e+03 0.00e+00 2.38e+00  -1.0 3.22e+00    -  4.86e-01 4.62e-01f  1
   2 -4.2461575e+03 0.00e+00 6.65e-01  -1.0 1.88e-01    -  6.87e-01 1.00e+00f  1
   3 -4.5341386e+03 0.00e+00 2.39e-01  -1.7 2.98e-01    -  9.67e-01 1.00e+00f  1
   4 -4.5653296e+03 0.00e+00 6.91e-03  -1.7 6.54e-02    -  1.00e+00 1.00e+00f  1
   5 -4.5665781e+03 0.00e+00 1.04e-03  -3.8 1.98e-02    -  1.00e+00 1.00e+00f  1
   6 -4.5665806e+03 0.00e+00 2.99e-06  -5.7 1.27e-03    -  1.00e+00 1.00e+00f  1
   7 -4.5665806e+03 0.00e+00 4.12e-11  -8.6 5.25e-06    -  1.00e+00 1.00e+00f  1

Number of Iterations....: 7

                                   (scaled)                 (unscaled)
Objective...............:  -4.5665805528117116e+03   -4.5665805528117116e+03
Dual infeasibility......:   4.1205602325945389e-11    4.1205602325945389e-11
Constraint violation....:   0.0000000000000000e+00    0.0000000000000000e+00
Complementarity.........:   2.6061390930951797e-09    2.6061390930951797e-09
Overall NLP error.......:   2.6061390930951797e-09    2.6061390930951797e-09


Number of objective function evaluations             = 8
Number of objective gradient evaluations             = 8
Number of equality constraint evaluations            = 0
Number of inequality constraint evaluations          = 0
Number of equality constraint Jacobian evaluations   = 0
Number of inequality constraint Jacobian evaluations = 0
Number of Lagrangian Hessian evaluations             = 7
Total CPU secs in IPOPT (w/o function evaluations)   =      0.040
Total CPU secs in NLP function evaluations           =      0.043

EXIT: Optimal Solution Found.

 ** SUBROUTINE CUTEST_csetup: Warning. The problem has no general constraints. 
 ** Other tools may be preferable ** 

************************ CUTEst statistics ************************


 Package used            :  IPOPT
 Problem                 :  MCCORMCK  
 # variables             =            5000
 # constraints           =               0
 # objective functions   =        0.1700000E+02
 # objective gradients   =        0.9000000E+01
 # objective Hessians    =        0.8000000E+01
 # Hessian-vector prdct  =        0.0000000E+00
 # constraints functions =        0.0000000E+00
 # constraints gradients =        0.0000000E+00
 # constraints Hessians  =        0.0000000E+00
 Exit code               =               0
 Final f                 =  -0.4566581E+04
 Set up time             =            0.11 seconds
 Solve time              =            0.22 seconds


******************************************************************

System Time =       0.0570000000 s.
